NAME : ManP-3-0
COMMENT : Pilot. 5 postmen. Max route 2941.15=4999.955m
TYPE : TSP
DIMENSION : 4
VEHICLES : 5
SCALE : 1000
DISTANCE : 49999.550
EDGE_WEIGHT_TYPE : EXPLICIT
EDGE_WEIGHT_FORMAT : UPPER_ROW
EDGE_WEIGHT_SECTION
466.608
1120.616
887.237

1574.197
426.722

1695.635

DEPOT_SECTION
1
-1
EOF
